10
40
2066
1487
1405
1364
900
799
773
652
233
75
23	135
86	436
50	234
71	331
187	454
337	583
88	141
818	879
839	886
671	686
591	602
923	939
409	353
945	809
430	364
588	428
979	707
585	387
60	38
138	87
15	279
64	422
271	524
89	167
193	313
330	405
298	355
591	699
877	912
877	905
789	803
549	554
981	936
833	764
740	667
309	241
866	674
913	679
839	553
276	174
